// Sun Feb 11 23:56:59 CST 2018
// minnfv run10

CPXPARAM_MIP_Strategy_CallbackReducedLP          0
Tried aggregator 2 times.
MIP Presolve eliminated 319 rows and 19 columns.
MIP Presolve modified 13711 coefficients.
Aggregator did 108 substitutions.
Reduced MIP has 3830 rows, 2582 columns, and 17074 nonzeros.
Reduced MIP has 1829 binaries, 753 generals, 0 SOSs, and 0 indicators.
Presolve time = 0.03 sec. (24.89 ticks)
Probing fixed 105 vars, tightened 0 bounds.
Probing time = 0.03 sec. (1.48 ticks)
Cover probing fixed 0 vars, tightened 18 bounds.
Tried aggregator 1 time.
MIP Presolve eliminated 111 rows and 105 columns.
MIP Presolve modified 2567 coefficients.
Reduced MIP has 3719 rows, 2477 columns, and 15932 nonzeros.
Reduced MIP has 1724 binaries, 753 generals, 0 SOSs, and 0 indicators.
Presolve time = 0.01 sec. (16.13 ticks)
Probing time = 0.02 sec. (1.22 ticks)
Clique table members: 1173.
MIP emphasis: balance optimality and feasibility.
MIP search method: dynamic search.
Parallel mode: deterministic, using up to 32 threads.
Root relaxation solution time = 0.03 sec. (15.39 ticks)

        Nodes                                         Cuts/
   Node  Left     Objective  IInf  Best Integer    Best Bound    ItCnt     Gap

      0     0      618.0410   100                    618.0410      331         
      0     0      618.0410    60                    Cuts: 16      381         
      0     0      618.0410   115                    Cuts: 70      566         
      0     0      618.0410   111                    Cuts: 26      659         
      0     0      618.0410   139                    Cuts: 79      908         
      0     2      618.0410    62                    618.0410      908         
Elapsed time = 0.78 sec. (448.66 ticks, tree = 0.01 MB, solutions = 0)
    558   341      618.0410    53                    618.0410    49047         
   1905  1431      618.0428    38                    618.0410   134529         
   4135  3105      618.0543    76                    618.0410   202273         
   5620  4564      618.0453   118                    618.0410   271428         
   5621  5085      618.0410    76                    618.0410   304179         
   5791    86      618.0430    91                    618.0410   309765         
   6689   838      618.0441    96                    618.0410   372230         
   7676  1606      618.0583   125                    618.0410   440065         
   9194  2705      618.0672   116                    618.0410   528244         
  16701  8608      618.0433   117                    618.0410   815123         
Elapsed time = 10.70 sec. (4327.96 ticks, tree = 16.51 MB, solutions = 0)
  22195 13261      618.0562   134                    618.0410  1067912         
  23761   649      618.0432    82                    618.0410  1207711         
  27257  3494      618.0541   155                    618.0410  1380531         
  32674  7898      618.0598   161                    618.0410  1665890         
  40287 14367      618.0472   134                    618.0410  2001491         
  50065 23142      618.0491   125                    618.0410  2373277         
* 56659 28885      integral     0      618.0460      618.0410  2594431    0.00%

Root node processing (before b&c):
  Real time             =    0.75 sec. (447.24 ticks)
Parallel b&c, 32 threads:
  Real time             =   26.95 sec. (10389.39 ticks)
  Sync time (average)   =    5.55 sec.
  Wait time (average)   =    0.05 sec.
                          ------------
Total (root+branch&cut) =   27.70 sec. (10836.63 ticks)
